qbf_easy_train/easy_2747_SAT.qdimacs
p cnf 31 85
a 17 2 27 0
e 1 3 4 5 6 7 8 9 10 11 12 13 14 15 16 18 19 20 21 22 23 24 25 26 28 29 30 31 0
-3 -1 0
-3 2 0
1 -2 3 0
4 -5 0
-4 -5 0
-6 3 0
-6 5 0
-3 -5 6 0
8 2 0
8 7 0
-2 -7 -8 0
10 -9 0
10 9 0
11 -8 0
11 10 0
8 -10 -11 0
11 4 -12 0
-11 -4 -12 0
11 -4 12 0
-11 4 12 0
13 12 0
13 -11 0
-12 11 -13 0
14 6 0
14 -13 0
-6 13 -14 0
15 -3 -16 0
-15 3 -16 0
15 3 16 0
-15 -3 16 0
-10 -1 -17 0
10 1 -17 0
-10 1 17 0
10 -1 17 0
18 16 0
18 17 0
-16 -17 -18 0
-14 18 -19 0
14 -18 -19 0
-14 -18 19 0
14 18 19 0
-17 9 -20 0
17 -9 -20 0
-17 -9 20 0
17 9 20 0
22 7 0
22 21 0
-7 -21 -22 0
5 1 -23 0
-5 -1 -23 0
5 -1 23 0
-5 1 23 0
24 -22 0
24 -23 0
22 23 -24 0
25 20 0
25 -24 0
-20 24 -25 0
19 25 -26 0
-19 -25 -26 0
19 -25 26 0
-19 25 26 0
28 27 0
28 5 0
-27 -5 -28 0
11 2 -29 0
-11 -2 -29 0
11 -2 29 0
-11 2 29 0
-30 -28 0
-30 29 0
28 -29 30 0
26 -30 -31 0
-26 30 -31 0
26 30 31 0
-26 -30 31 0
-10 20 -25 -24 -29 -5 16 18 0
-9 -14 31 -13 16 29 0
-15 -13 3 -31 -12 26 0
28 -13 25 4 -7 -23 15 0
18 -6 3 24 7 28 -2 8 0
-15 12 -10 -7 14 -8 0
8 -10 -12 11 0
31 -14 22 -10 0
31 0
