sat_easy_train/easy_2747_SAT.dimacs
p cnf 112 377
4 -2 0
4 -3 0
2 3 -4 0
5 1 0
5 -4 0
-1 4 -5 0
5 -6 -7 0
-5 6 -7 0
5 6 7 0
-5 -6 7 0
8 7 0
8 -2 0
-7 2 -8 0
9 -7 -10 0
-9 7 -10 0
9 7 10 0
-9 -7 10 0
-12 11 0
-12 1 0
-11 -1 12 0
-12 13 -14 0
12 -13 -14 0
-12 -13 14 0
12 13 14 0
15 10 0
15 14 0
-10 -14 -15 0
-18 -19 -20 0
18 19 -20 0
-18 19 20 0
18 -19 20 0
22 -20 0
22 -21 0
20 21 -22 0
17 22 -23 0
-17 -22 -23 0
17 -22 23 0
-17 22 23 0
-24 -16 0
-24 -23 0
16 23 24 0
25 -2 -26 0
-25 2 -26 0
25 2 26 0
-25 -2 26 0
-27 -4 0
-27 -20 0
4 20 27 0
28 27 0
28 -23 0
-27 23 -28 0
29 -26 0
29 28 0
26 -28 -29 0
30 24 0
30 29 0
-24 -29 -30 0
21 -23 -31 0
-21 23 -31 0
21 23 31 0
-21 -23 31 0
32 -27 0
32 -11 0
27 11 -32 0
-33 31 0
-33 -32 0
-31 32 33 0
-30 33 -34 0
30 -33 -34 0
-30 -33 34 0
30 33 34 0
-35 34 0
-35 -22 0
-34 22 35 0
37 -35 0
37 36 0
35 -36 -37 0
-39 1 0
-39 38 0
-1 -38 39 0
40 36 0
40 13 0
-36 -13 -40 0
-41 -39 0
-41 40 0
39 -40 41 0
37 41 -42 0
-37 -41 -42 0
37 -41 42 0
-37 41 42 0
43 -15 0
43 -42 0
15 42 -43 0
3 -5 -44 0
-3 5 -44 0
3 5 44 0
-3 -5 44 0
45 -4 0
45 16 0
4 -16 -45 0
-46 -44 0
-46 -45 0
44 45 46 0
43 46 -47 0
-43 -46 -47 0
43 -46 47 0
-43 46 47 0
-48 8 0
-48 47 0
-8 -47 48 0
-49 -11 0
-49 29 0
11 -29 49 0
-13 -39 -50 0
13 39 -50 0
-13 39 50 0
13 -39 50 0
51 -50 0
51 -6 0
50 6 -51 0
-52 17 0
-52 18 0
-17 -18 52 0
-3 52 -53 0
3 -52 -53 0
-3 -52 53 0
3 52 53 0
21 25 -54 0
-21 -25 -54 0
21 -25 54 0
-21 25 54 0
-1 -27 -55 0
1 27 -55 0
-1 27 55 0
1 -27 55 0
-55 19 -56 0
55 -19 -56 0
-55 -19 56 0
55 19 56 0
-57 -54 0
-57 -56 0
54 56 57 0
57 -22 -58 0
-57 22 -58 0
57 22 58 0
-57 -22 58 0
59 56 0
59 -20 0
-56 20 -59 0
-29 -12 -60 0
29 12 -60 0
-29 12 60 0
29 -12 60 0
59 -60 -61 0
-59 60 -61 0
59 60 61 0
-59 -60 61 0
-62 58 0
-62 61 0
-58 -61 62 0
-53 -62 -63 0
53 62 -63 0
-53 62 63 0
53 -62 63 0
64 -51 0
64 -63 0
51 63 -64 0
65 49 0
65 64 0
-49 -64 -65 0
66 -13 0
66 -19 0
13 19 -66 0
-5 16 -67 0
5 -16 -67 0
-5 -16 67 0
5 16 67 0
68 -66 0
68 -67 0
66 67 -68 0
70 -69 0
70 -12 0
69 12 -70 0
69 70 -71 0
-69 -70 -71 0
69 -70 71 0
-69 70 71 0
-72 -68 0
-72 71 0
68 -71 72 0
73 -39 0
73 -2 0
39 2 -73 0
2 30 -74 0
-2 -30 -74 0
2 -30 74 0
-2 30 74 0
-75 -73 0
-75 74 0
73 -74 75 0
-76 -39 0
-76 -52 0
39 52 76 0
-26 13 -77 0
26 -13 -77 0
-26 -13 77 0
26 13 77 0
76 77 -78 0
-76 -77 -78 0
76 -77 78 0
-76 77 78 0
79 75 0
79 -78 0
-75 78 -79 0
-24 -76 -80 0
24 76 -80 0
-24 76 80 0
24 -76 80 0
-81 79 0
-81 80 0
-79 -80 81 0
-32 23 -82 0
32 -23 -82 0
-32 -23 82 0
32 23 82 0
-83 82 0
-83 11 0
-82 -11 83 0
84 -81 0
84 83 0
81 -83 -84 0
72 -84 -85 0
-72 84 -85 0
72 84 85 0
-72 -84 85 0
-86 -65 0
-86 85 0
65 -85 86 0
87 -19 0
87 -24 0
19 24 -87 0
-88 23 0
-88 -17 0
-23 17 88 0
89 -87 0
89 88 0
87 -88 -89 0
90 -32 0
90 -25 0
32 25 -90 0
90 56 -91 0
-90 -56 -91 0
90 -56 91 0
-90 56 91 0
-92 89 0
-92 91 0
-89 -91 92 0
-77 69 -93 0
77 -69 -93 0
-77 -69 93 0
77 69 93 0
94 93 0
94 -57 0
-93 57 -94 0
95 -39 0
95 -77 0
39 77 -95 0
-96 -19 0
-96 17 0
19 -17 96 0
95 96 -97 0
-95 -96 -97 0
95 -96 97 0
-95 96 97 0
-94 97 -98 0
94 -97 -98 0
-94 -97 98 0
94 97 98 0
99 38 0
99 -27 0
-38 27 -99 0
55 -99 -100 0
-55 99 -100 0
55 99 100 0
-55 -99 100 0
-101 -98 0
-101 -100 0
98 100 101 0
-102 92 0
-102 101 0
-92 -101 102 0
70 4 -103 0
-70 -4 -103 0
70 -4 103 0
-70 4 103 0
102 103 -104 0
-102 -103 -104 0
102 -103 104 0
-102 103 104 0
39 4 -105 0
-39 -4 -105 0
39 -4 105 0
-39 4 105 0
106 18 0
106 -26 0
-18 26 -106 0
107 105 0
107 -106 0
-105 106 -107 0
104 107 -108 0
-104 -107 -108 0
104 -107 108 0
-104 107 108 0
109 11 0
109 -38 0
-11 38 -109 0
-110 -108 0
-110 109 0
108 -109 110 0
-86 -110 -111 0
86 110 -111 0
-86 110 111 0
86 -110 111 0
48 111 -112 0
-48 -111 -112 0
48 -111 112 0
-48 111 112 0
-34 45 -26 -71 -56 10 0
-76 46 0
60 70 75 -36 0
-34 90 -49 41 -11 0
101 -5 -51 0
52 45 -27 -64 102 -72 0
79 -62 78 67 -13 0
35 -111 -67 0
-35 -14 66 -16 -22 47 0
-16 -9 14 33 -87 0
-70 -31 0
-6 101 -74 62 0
80 -10 109 0
-108 -88 0
49 25 80 0
109 -4 -64 79 0
-104 -59 0
14 41 42 -52 0
6 -100 -61 -10 41 0
29 82 12 -20 0
43 -7 -25 -36 -16 0
-68 -7 0
2 -105 -4 0
62 -99 38 -53 0
-108 -99 -65 -81 -41 0
54 2 86 -48 0
-71 -66 -80 44 -37 42 0
100 3 -81 -68 -111 -30 0
46 -57 -103 43 62 -20 0
-100 -39 13 0
2 30 19 27 0
92 13 34 37 -49 0
-99 -49 -71 82 -68 -59 0
89 29 98 47 37 -84 0
22 98 -4 24 -11 105 0
-68 -58 -77 0
28 -15 9 17 -26 37 0
78 -8 -28 -77 0
7 -86 0
82 -67 0
21 82 -76 0
24 -62 -57 99 0
-51 79 0
-35 110 57 70 0
-110 -81 -62 -38 -105 0
-64 98 -72 0
85 59 -39 99 0
46 71 0
-65 -72 38 0
112 0
